c Lingeling SAT Solver
c 
c Version azf 92032848c138b2f33629ad24394d60a3787a1046
c 
c Copyright (C) 2010-2014 Armin Biere JKU Linz Austria.
c All rights reserved.
c 
c released Don Mai 22 22:08:00 CEST 2014
c compiled Mon Oct  6 05:55:43 PDT 2014
c 
c gcc (Ubuntu 4.8.2-19ubuntu1) 4.8.2
c -Wall -O3 -DNDBLSCR -DNLGLOG -DNDEBUG -DNCHKSOL -DNLGLPICOSAT -DNLGLDRUPLIG
c -DNLGLYALSAT
c Linux ubuntu 3.13.0-32-generic x86_64
c 
c reading input file benchmark-sat/translations/gc-inithx.i.1-32.cnf
c no embedded options
c found 'p cnf 27648 1028032' header
c read 27648 variables, 1028032 clauses, 2081984 literals in 0.00 seconds
c 
c  seconds         irredundant          redundant clauses agility   height
c          variables clauses conflicts large ternary binary    glue         MB
c 
c S    0.0   27648  1028032         0       0      0     0   0  0.0   0.0   19
c S    1.0   16163   842327         0       0      0     0   0  0.0   0.0   14
c P    2.0   16163   752592      1001     897      0 89735   1 31.6 1605.4   26
c P    5.0   16163   598698      1001     897      0 243629   1 31.6 1605.4   27
c S   10.1   16093   598628      1011      82      0 241459   1 31.6 1576.9   29
c S   20.0   16093   598628     43782    8725      0 241459   1 36.6 269.2   57
c S   30.0   16093   598628     94319   10567      0 241459   2 37.9 225.6   62
c S   40.0   16093   598628    158762   16280      0 241459   1 44.0 212.1   64
c S   50.0   16093   598628    220054   22487      0 241459   1 45.0 204.8   72
c S   60.0   16093   598628    294662   15659      0 241459   2 45.5 203.2   72
c S  120.0   16093   598628    664038   38386      0 241459   1 60.1 197.3   97
c S  180.0   16093   598628   1034333   50237      0 241459   1 57.8 195.3  116
c S  240.0   16093   598628   1426272   55272      0 241459   1 67.2 196.9  123
c S  300.0   16093   598628   1795838   51470      0 241459   1 64.9 197.0  138
c S  600.0   16093   598628   3447376   89951      0 241459   1 63.3 199.2  186
c S  900.0   16093   598628   5003579   74967      0 241459   2 65.8 200.7  182
